16 32
1 2 4
1 5 4
2 3 3
2 6 3
3 4 1
3 7 4
4 8 1
5 6 3
5 9 1
6 7 1
6 10 5
7 8 1
7 11 3
8 12 3
9 10 5
9 13 1
10 11 2
10 14 5
11 12 4
11 15 5
12 16 1
13 14 1
14 15 2
15 16 2
1 13 1
2 14 3
3 15 2
4 16 5
1 4 1
5 8 2
9 12 2
13 16 4
